(set-info :smt-lib-version 2.6)
(set-logic QF_UFLRA)
(set-info :source |
MathSat group

|)
(set-info :category "random")
(set-info :status sat)
(declare-fun f0_1 (Real) Real)
(declare-fun f0_2 (Real Real) Real)
(declare-fun f0_3 (Real Real Real) Real)
(declare-fun f0_4 (Real Real Real Real) Real)
(declare-fun f1_1 (Real) Real)
(declare-fun f1_2 (Real Real) Real)
(declare-fun f1_3 (Real Real Real) Real)
(declare-fun f1_4 (Real Real Real Real) Real)
(declare-fun x0 () Real)
(declare-fun x1 () Real)
(declare-fun x2 () Real)
(declare-fun x3 () Real)
(declare-fun x4 () Real)
(declare-fun x5 () Real)
(declare-fun x6 () Real)
(declare-fun x7 () Real)
(declare-fun x8 () Real)
(declare-fun x9 () Real)
(declare-fun x10 () Real)
(declare-fun x11 () Real)
(declare-fun x12 () Real)
(declare-fun x13 () Real)
(declare-fun x14 () Real)
(declare-fun x15 () Real)
(declare-fun x16 () Real)
(declare-fun x17 () Real)
(declare-fun x18 () Real)
(declare-fun x19 () Real)
(declare-fun x20 () Real)
(declare-fun x21 () Real)
(declare-fun x22 () Real)
(declare-fun x23 () Real)
(declare-fun x24 () Real)
(declare-fun x25 () Real)
(declare-fun x26 () Real)
(declare-fun x27 () Real)
(declare-fun x28 () Real)
(declare-fun x29 () Real)
(declare-fun x30 () Real)
(declare-fun x31 () Real)
(declare-fun x32 () Real)
(declare-fun x33 () Real)
(declare-fun x34 () Real)
(declare-fun x35 () Real)
(declare-fun x36 () Real)
(declare-fun x37 () Real)
(declare-fun x38 () Real)
(declare-fun x39 () Real)
(declare-fun P0 () Bool)
(declare-fun P1 () Bool)
(declare-fun P2 () Bool)
(declare-fun P3 () Bool)
(declare-fun P4 () Bool)
(declare-fun P5 () Bool)
(declare-fun P6 () Bool)
(declare-fun P7 () Bool)
(declare-fun P8 () Bool)
(declare-fun P9 () Bool)
(declare-fun P10 () Bool)
(declare-fun P11 () Bool)
(declare-fun P12 () Bool)
(declare-fun P13 () Bool)
(declare-fun P14 () Bool)
(declare-fun P15 () Bool)
(declare-fun P16 () Bool)
(declare-fun P17 () Bool)
(declare-fun P18 () Bool)
(declare-fun P19 () Bool)
(declare-fun P20 () Bool)
(declare-fun P21 () Bool)
(declare-fun P22 () Bool)
(declare-fun P23 () Bool)
(declare-fun P24 () Bool)
(declare-fun P25 () Bool)
(declare-fun P26 () Bool)
(declare-fun P27 () Bool)
(declare-fun P28 () Bool)
(declare-fun P29 () Bool)
(declare-fun P30 () Bool)
(declare-fun P31 () Bool)
(declare-fun P32 () Bool)
(declare-fun P33 () Bool)
(declare-fun P34 () Bool)
(declare-fun P35 () Bool)
(declare-fun P36 () Bool)
(declare-fun P37 () Bool)
(declare-fun P38 () Bool)
(declare-fun P39 () Bool)
(assert (let ((?v_133 (f1_2 x13 x12)) (?v_199 (f1_1 x18))) (let ((?v_36 (f0_2 ?v_133 x9)) (?v_66 (f1_1 x16)) (?v_31 (- (- (* 8 x5) (* 23 x9)) (* 6 (f1_1 x39)))) (?v_21 (- (+ (* 13 x17) (* 9 x11)) (* 14 x16))) (?v_100 (* 7 x18)) (?v_221 (- (- (* 27 ?v_199) (* 27 x5)) (* 18 x1))) (?v_101 (f0_2 x36 x13)) (?v_112 (f1_1 x8)) (?v_19 (f1_2 x5 x11)) (?v_43 (f0_2 x21 x8)) (?v_50 (f1_2 x10 x23)) (?v_22 (* 17 x27)) (?v_132 (f0_1 x20))) (let ((?v_51 (f0_2 ?v_43 ?v_36)) (?v_111 (f0_2 x16 x31)) (?v_6 (f1_2 x24 x14)) (?v_7 (f1_1 x12)) (?v_72 (f0_1 x6)) (?v_39 (f1_1 ?v_19)) (?v_26 (f0_1 x25)) (?v_15 (f1_2 x5 x25)) (?v_18 (* 18 x11)) (?v_34 (f1_1 x37)) (?v_3 (f1_2 x19 x32)) (?v_27 (f0_2 x11 x36)) (?v_389 (f1_2 x15 x35))) (let ((?v_53 (f0_2 ?v_50 ?v_51)) (?v_56 (f0_1 x1)) (?v_130 (f0_1 x14)) (?v_16 (f0_1 x16)) (?v_0 (- (+ (* 17 x16) (* 22 x30)) (* 26 x0))) (?v_194 (f1_2 ?v_132 ?v_133)) (?v_79 (f1_2 x10 ?v_7)) (?v_91 (f1_1 ?v_39)) (?v_85 (f0_1 x0)) (?v_171 (f1_2 x1 x32)) (?v_265 (f1_1 x20)) (?v_49 (f1_1 ?v_31)) (?v_125 (f1_1 x33)) (?v_250 (* 2 x24)) (?v_124 (f1_2 x28 x27)) (?v_44 (f0_1 x35)) (?v_45 (- (- (* 24 x34) (* 25 x4)) (* 10 x21))) (?v_336 (= x38 ?v_7))) (let ((?v_185 (= ?v_56 x33)) (?v_129 (< ?v_85 10)) (?v_142 (< ?v_194 0)) (?v_320 (< ?v_43 10)) (?v_233 (< x30 10)) (?v_193 (< x16 5)) (?v_139 (< ?v_43 22)) (?v_29 (< ?v_6 0)) (?v_392 (< (f0_2 x4 x15) 20)) (?v_268 (< x36 5)) (?v_58 (< x32 18)) (?v_123 (< x8 22)) (?v_184 (< ?v_26 28)) (?v_299 (< ?v_16 10)) (?v_89 (< (f0_1 x7) 25)) (?v_338 (< ?v_51 24)) (?v_247 (< x7 0)) (?v_347 (< (f0_2 x15 x33) 27)) (?v_383 (< (f0_1 x3) 28)) (?v_180 (< (f1_2 x1 x20) 9)) (?v_298 (< x5 12)) (?v_249 (< ?v_199 5)) (?v_330 (< ?v_19 23)) (?v_128 (= x8 x3)) (?v_168 (< (f0_1 x8) 29)) (?v_157 (< ?v_53 25)) (?v_120 (< ?v_389 18)) (?v_302 (= x26 ?v_72)) (?v_231 (= ?v_34 ?v_0)) (?v_202 (< x8 27)) (?v_201 (= ?v_101 ?v_7)) (?v_47 (< ?v_27 22)) (?v_260 (< (- (- (* 13 (f1_2 x28 x16)) (* 15 (f1_2 x0 x27))) (* 24 (f0_2 x3 x38))) 19)) (?v_87 (= ?v_91 ?v_50)) (?v_277 (< ?v_6 10)) (?v_378 (< ?v_26 19)) (?v_212 (< x23 26)) (?v_398 (< ?v_389 10)) (?v_327 (< ?v_112 11)) (?v_169 (< ?v_15 14)) (?v_37 (< x35 12)) (?v_380 (< ?v_44 29)) (?v_307 (< (f0_2 x25 x29) 7)) (?v_351 (< ?v_265 16)) (?v_153 (= x15 x34)) (?v_82 (< ?v_53 20)) (?v_62 (< x39 14)) (?v_343 (< x16 27)) (?v_413 (= x25 x33)) (?v_108 (< ?v_79 17)) (?v_228 (< ?v_194 29)) (?v_311 (< ?v_26 16)) (?v_8 (< x9 1)) (?v_76 (< ?v_45 4)) (?v_14 (< (f1_2 x22 x39) 21)) (?v_70 (= x17 x23)) (?v_235 (< x18 17)) (?v_397 (= ?v_7 (f0_2 x8 ?v_132))) (?v_177 (= ?v_49 ?v_53)) (?v_252 (= ?v_51 ?v_26)) (?v_226 (< x4 14)) (?v_237 (< ?v_125 29)) (?v_174 (= ?v_3 ?v_85)) (?v_122 (= ?v_44 ?v_101)) (?v_288 (< x27 2)) (?v_284 (< x20 6)) (?v_200 (< ?v_16 2)) (?v_272 (< x1 24))) (let ((?v_189 (not ?v_169)) (?v_98 (not P11)) (?v_349 (not ?v_174)) (?v_163 (not ?v_14)) (?v_84 (not P29)) (?v_173 (not ?v_8)) (?v_240 (not ?v_108)) (?v_394 (not ?v_413)) (?v_78 (not ?v_277)) (?v_13 (not P6)) (?v_23 (not P14)) (?v_267 (not (< (f1_1 x27) 23))) (?v_412 (not P36)) (?v_191 (not P0)) (?v_55 (not P3)) (?v_287 (not ?v_185)) (?v_97 (not ?v_330)) (?v_143 (not (= x19 ?v_27))) (?v_104 (not ?v_128)) (?v_400 (not ?v_343)) (?v_236 (not P26)) (?v_313 (not ?v_284)) (?v_203 (not ?v_37)) (?v_73 (not ?v_260)) (?v_251 (not ?v_87)) (?v_92 (not ?v_201)) (?v_110 (not ?v_252)) (?v_61 (not P28)) (?v_59 (not ?v_58)) (?v_88 (not ?v_177)) (?v_335 (not P20)) (?v_172 (not P21)) (?v_290 (not ?v_153)) (?v_68 (not P4)) (?v_75 (not ?v_62)) (?v_146 (not P38)) (?v_105 (not ?v_70)) (?v_115 (not ?v_89)) (?v_256 (not P13)) (?v_186 (not ?v_29)) (?v_315 (not ?v_129)) (?v_107 (not ?v_392)) (?v_109 (not ?v_168)) (?v_407 (not ?v_249)) (?v_257 (not ?v_202)) (?v_227 (not P31)) (?v_282 (not P33)) (?v_370 (not ?v_327)) (?v_340 (not ?v_237)) (?v_399 (not ?v_338)) (?v_279 (not ?v_212)) (?v_127 (not ?v_76)) (?v_190 (not ?v_272)) (?v_258 (not ?v_288)) (?v_312 (not P24)) (?v_348 (not P16)) (?v_167 (not P27)) (?v_198 (not ?v_142)) (?v_213 (not ?v_307)) (?v_205 (not P35)) (?v_275 (not ?v_82)) (?v_410 (not P2)) (?v_309 (not (< ?v_7 0))) (?v_406 (not ?v_157)) (?v_222 (not P37)) (?v_385 (not P30)) (?v_375 (not P17)) (?v_334 (not P19)) (?v_409 (not ?v_226)) (?v_365 (not P9)) (?v_297 (not ?v_235)) (?v_285 (not ?v_247)) (?v_316 (not ?v_268)) (?v_345 (not P5)) (?v_415 (not P34)) (?v_366 (not ?v_320)) (?v_341 (not P15)) (?v_350 (not ?v_347)) (?v_396 (not P22)) (?v_402 (not ?v_47)) (?v_77 (+ ?v_18 (* 22 x26) (* 11 x2)))) (let ((?v_159 (f0_2 ?v_77 x27)) (?v_40 (+ (* 19 ?v_43) (* 17 x23) (* 25 x15)))) (let ((?v_38 (= ?v_40 x33)) (?v_135 (- (- (* 5 ?v_26) (* 7 (+ (* 25 x27) (* 10 x12) (* 26 x8)))) (* 21 ?v_16)))) (let ((?v_181 (not ?v_38)) (?v_261 (= ?v_85 ?v_159)) (?v_358 (= (+ (* 13 x6) (* 23 x37) ?v_250) (f1_1 x5)))) (let ((?v_254 (not ?v_358)) (?v_9 (+ (* (- 21) x20) ?v_22 (* 3 x34)))) (let ((?v_121 (= ?v_21 ?v_9)) (?v_232 (< x9 (- 16)))) (let ((?v_376 (not ?v_232)) (?v_5 (< ?v_112 (- 18))) (?v_1 (< ?v_0 (- 12)))) (let ((?v_408 (not ?v_1)) (?v_234 (< ?v_0 (- 1)))) (let ((?v_4 (not ?v_234)) (?v_11 (+ (- (* (- 8) x7) (* 6 x12)) (* 13 x31)))) (let ((?v_2 (f1_2 ?v_11 ?v_6))) (let ((?v_12 (< ?v_2 (- 22))) (?v_17 (< ?v_265 (- 27))) (?v_134 (- (- (* (- 6) x16) (* 4 x9)) (* 11 x29)))) (let ((?v_179 (< ?v_134 (- 7))) (?v_300 (< ?v_34 (- 20))) (?v_164 (< ?v_66 (- 17))) (?v_24 (< x12 (- 19)))) (let ((?v_138 (not ?v_24)) (?v_94 (- (+ (* 19 ?v_2) (* 28 ?v_3)) (* 28 x22)))) (let ((?v_10 (< ?v_94 (- 23))) (?v_295 (< x0 (- 18)))) (let ((?v_30 (not ?v_295)) (?v_46 (< x14 (- 17)))) (let ((?v_360 (not ?v_46)) (?v_35 (- (+ (* (- 28) x5) (* 27 x15)) ?v_18))) (let ((?v_67 (< ?v_35 (- 8))) (?v_264 (< ?v_39 (- 24))) (?v_32 (- (+ (* (- 16) x1) (* 18 x23)) (* 5 x18)))) (let ((?v_113 (= (- (- (* 5 ?v_32) (* 25 (f0_2 x5 x5))) (* 26 x15)) x17))) (let ((?v_25 (not ?v_113)) (?v_196 (not ?v_5)) (?v_223 (< x39 (- 14))) (?v_33 (+ (* 25 ?v_36) (* 2 ?v_9) (* 3 ?v_111)))) (let ((?v_145 (= ?v_16 (f0_2 (f0_2 x24 x17) ?v_33)))) (let ((?v_283 (not ?v_145)) (?v_206 (not ?v_10)) (?v_211 (= ?v_11 (f1_1 x15)))) (let ((?v_106 (not ?v_211)) (?v_208 (< x24 (- 3)))) (let ((?v_266 (not ?v_208)) (?v_118 (< ?v_15 (- 13)))) (let ((?v_322 (not ?v_118)) (?v_93 (< x1 (- 20))) (?v_20 (+ (* (- 4) x30) (* 21 x19) (* 28 x33)))) (let ((?v_187 (< ?v_20 1)) (?v_342 (not ?v_17)) (?v_57 (f0_1 ?v_20)) (?v_332 (- (- (* (- 19) x14) (* 8 x13)) (* 24 x7)))) (let ((?v_162 (- (+ (* (- 11) ?v_332) (* 16 (f0_2 ?v_11 ?v_21))) (* 7 (- (+ (* 13 x14) ?v_22) (* 20 x25)))))) (let ((?v_131 (< (+ (* 19 ?v_16) (* 28 ?v_57) (* 20 ?v_162)) (- 20)))) (let ((?v_324 (not ?v_131)) (?v_71 (- (- (* (- 3) x22) (* 16 x28)) (* 19 x23)))) (let ((?v_28 (= ?v_3 ?v_71)) (?v_63 (< ?v_49 (- 10))) (?v_218 (< (f1_1 x25) (- 3))) (?v_126 (< ?v_135 (- 22))) (?v_209 (< ?v_31 (- 15)))) (let ((?v_246 (not ?v_209)) (?v_60 (f0_2 ?v_32 x10))) (let ((?v_158 (< ?v_60 8)) (?v_220 (f0_2 x37 ?v_33))) (let ((?v_95 (< ?v_220 8)) (?v_83 (- (+ (* 17 ?v_35) (* 10 x7)) (* 15 ?v_36)))) (let ((?v_48 (< ?v_83 (- 5))) (?v_103 (< ?v_124 (- 10)))) (let ((?v_270 (not ?v_103)) (?v_314 (< ?v_44 (- 26)))) (let ((?v_253 (not ?v_314)) (?v_54 (< (+ (- (* (- 16) x37) (* 5 x16)) ?v_250) (- 13)))) (let ((?v_273 (not ?v_54)) (?v_42 (- (- (* (- 2) x36) (* 5 x6)) (* 23 x15)))) (let ((?v_41 (- (+ (* 7 ?v_20) (* 22 ?v_42)) (* 24 ?v_40)))) (let ((?v_204 (< ?v_41 (- 16)))) (let ((?v_403 (not ?v_204)) (?v_69 (= ?v_132 ?v_41)) (?v_52 (< ?v_42 (- 29))) (?v_292 (< x11 (- 6)))) (let ((?v_64 (not ?v_292)) (?v_238 (< ?v_43 (- 9)))) (let ((?v_259 (not ?v_238)) (?v_262 (< (+ (* (- 18) x1) (* 19 ?v_21) (* 7 x11)) (- 17)))) (let ((?v_65 (not ?v_262)) (?v_289 (< ?v_44 (- 14))) (?v_230 (< ?v_45 (- 8)))) (let ((?v_155 (not ?v_230)) (?v_325 (= ?v_35 (+ (* 14 x28) (* 29 x32) (* 17 x38)))) (?v_219 (< x8 (- 29))) (?v_303 (< ?v_72 (- 18)))) (let ((?v_99 (not ?v_303)) (?v_74 (+ (* (- 9) x14) (* 13 ?v_56) (* 12 x0)))) (let ((?v_90 (< ?v_74 (- 17)))) (let ((?v_144 (not ?v_90)) (?v_301 (< x17 (- 27)))) (let ((?v_333 (not ?v_301)) (?v_274 (< (- (+ (* (- 2) x26) (* 4 x2)) (* 15 x23)) 8)) (?v_116 (< ?v_57 19)) (?v_337 (< ?v_53 (- 12)))) (let ((?v_114 (not ?v_337)) (?v_81 (< x35 (- 23)))) (let ((?v_323 (not ?v_81)) (?v_80 (< ?v_49 (- 29)))) (let ((?v_411 (not ?v_80)) (?v_374 (= ?v_60 ?v_44)) (?v_176 (< ?v_35 25)) (?v_239 (< x18 (- 15))) (?v_117 (not ?v_63)) (?v_119 (< ?v_66 (- 20))) (?v_296 (not ?v_28)) (?v_319 (< ?v_50 (- 2))) (?v_197 (< (- (- (* (- 20) ?v_42) ?v_100) (* 12 ?v_71)) (- 27))) (?v_86 (< ?v_72 (- 23))) (?v_96 (< ?v_74 (- 10))) (?v_241 (< ?v_77 (- 3))) (?v_175 (< ?v_79 (- 20)))) (let ((?v_346 (not ?v_175)) (?v_395 (< ?v_6 (- 27)))) (let ((?v_361 (not ?v_395)) (?v_210 (< ?v_83 11))) (let ((?v_102 (not ?v_210)) (?v_161 (not ?v_86)) (?v_136 (< ?v_91 (- 2))) (?v_421 (< ?v_94 26))) (let ((?v_326 (not ?v_421)) (?v_170 (= ?v_42 (+ (* (- 19) x6) (* 20 x33) ?v_100))) (?v_141 (f1_2 x36 ?v_42))) (let ((?v_150 (< ?v_141 (- 4)))) (let ((?v_308 (not ?v_150)) (?v_166 (< (f1_1 ?v_34) (- 28)))) (let ((?v_192 (not ?v_166)) (?v_140 (< ?v_130 (- 29))) (?v_368 (< (- (- (* (- 9) x25) (* 16 x25)) (* 14 x20)) (- 22))) (?v_224 (< ?v_111 (- 21))) (?v_156 (< x10 (- 16))) (?v_137 (not ?v_119)) (?v_217 (< ?v_94 0)) (?v_242 (< (f0_1 ?v_35) 17)) (?v_280 (< ?v_124 (- 1))) (?v_152 (< ?v_16 (- 25))) (?v_195 (< ?v_125 (- 29))) (?v_388 (not (< ?v_130 (- 5)))) (?v_151 (< (- (- (* (- 11) x13) (* 16 x1)) (* 12 x35)) 29)) (?v_148 (< (- (- (* 6 x24) (* 6 ?v_66)) (* 2 x12)) (- 24))) (?v_160 (< x27 (- 27))) (?v_244 (= (- (+ (* (- 25) x31) (* 27 x1)) (* 15 x19)) x22))) (let ((?v_147 (not ?v_244)) (?v_165 (< ?v_134 18)) (?v_207 (< ?v_135 (- 20))) (?v_178 (< ?v_134 22))) (let ((?v_245 (not ?v_178)) (?v_363 (< x2 (- 21)))) (let ((?v_154 (not ?v_363)) (?v_149 (< ?v_141 (- 19))) (?v_373 (not ?v_96)) (?v_355 (not (< ?v_83 (- 10)))) (?v_182 (not ?v_148)) (?v_183 (not ?v_151)) (?v_248 (< x3 (- 7)))) (let ((?v_418 (not ?v_248)) (?v_188 (< ?v_19 (- 18))) (?v_317 (= ?v_162 (f0_1 x33)))) (let ((?v_269 (not ?v_317)) (?v_414 (< ?v_42 13)) (?v_331 (< ?v_171 (- 4))) (?v_291 (< ?v_11 0)) (?v_215 (= ?v_15 ?v_11)) (?v_364 (not ?v_176)) (?v_276 (not ?v_179)) (?v_356 (not ?v_197)) (?v_278 (+ (- (* (- 5) x2) (* 9 x12)) (* 14 x4)))) (let ((?v_318 (< ?v_278 6)) (?v_357 (< ?v_221 (- 26)))) (let ((?v_281 (not ?v_357)) (?v_216 (not ?v_195)) (?v_225 (< ?v_91 (- 21)))) (let ((?v_263 (not ?v_225)) (?v_243 (not ?v_207)) (?v_214 (< x32 (- 19))) (?v_255 (< ?v_26 (- 15)))) (let ((?v_271 (not ?v_255)) (?v_306 (not ?v_215)) (?v_344 (not ?v_217)) (?v_379 (not ?v_219)) (?v_371 (= ?v_220 (- (- (* 22 ?v_43) (* 16 ?v_221)) (* 3 ?v_133))))) (let ((?v_304 (not ?v_371)) (?v_229 (not ?v_224)) (?v_362 (not ?v_69)) (?v_305 (< (+ (* 9 ?v_72) (* 2 ?v_141) (* 15 ?v_101)) (- 13))) (?v_386 (not ?v_264)) (?v_353 (not ?v_241)) (?v_286 (not ?v_274)) (?v_294 (< ?v_278 28))) (let ((?v_393 (not ?v_294)) (?v_359 (< ?v_16 (- 26))) (?v_310 (< (- (- (* 29 x26) (* 21 x9)) (* 8 x38)) (- 7))) (?v_328 (not ?v_280)) (?v_372 (not ?v_93)) (?v_419 (= ?v_41 ?v_72))) (let ((?v_377 (not ?v_419)) (?v_293 (< ?v_171 (- 5))) (?v_321 (not ?v_289)) (?v_381 (not ?v_291)) (?v_401 (not ?v_223)) (?v_391 (not ?v_95)) (?v_354 (< x14 (- 2))) (?v_329 (not ?v_325)) (?v_367 (not ?v_121)) (?v_387 (not (< ?v_332 (- 29)))) (?v_339 (< x25 (- 20)))) (let ((?v_405 (not ?v_339)) (?v_352 (< ?v_332 26)) (?v_384 (not ?v_354)) (?v_369 (not ?v_359)) (?v_404 (not ?v_310)) (?v_382 (not ?v_136)) (?v_417 (not ?v_305)) (?v_390 (not ?v_149)) (?v_420 (not ?v_214)) (?v_416 (< ?v_41 0))) (and (and (and (and (and (and (and (and (and (and (and (and (and (and (and (and (and (and (and (and (and (and (and (and (and (and (and (and (and (and (and (and (and (and (and (and (and (and (and (and (and (and (and (and (and (and (and (and (and (and (and (and (and (and (and (and (and (and (and (and (and (and (and (and (and (and (and (and (and (and (and (and (and (and (and (and (and (and (and (and (and (and (and (and (and (and (and (and (and (and (and (and (and (and (and (and (and (and (and (and (and (and (and (and (and (and (and (and (and (and (and (and (and (and (and (and (and (and (and (and (and (and (and (and (and (and (and (and (and (and (and (and (and (and (and (and (and (and (and (and (and (and (and (and (and (and (and (and (and (and (and (and (and (and (and (and (and (and (and (and (and (and (and (and (and (and (and (and (and (and (and (and (and (and (and (and (and (and (and (and (and (and (and (and (and (and (and (and (and (and (and (and (and (and (and (and (and (and (and (and (and (and (and (and (and (and (and (and (and (and (and (and (and (and (and (and (and (and (and (and (and (and (and (and (and (and (and (and (and (and (and (and (and (and (and (and (and (and (and (and (and (and (and (and (and (and (and (and (and (and (and (and (and (and (and (and (and (and (and (and (and (and (and (and (and (and (and (and (and (and (and (and (and (and (and (and (and (and (and (and (and (and (and (and (and (and (and (and (and (and (and (and (and (and (and (and (and (and (and (and (and (and (and (and (and (and (and (and (and (and (and (and (and (and (and (and (and (and (and (and (and (and (and (and (and (and (and (and (and (and (and (and (and (and (and (and (and (and (and (and (and (and (and (and (and (and (and (and (and (and (and (and (and (and (and (and (and (and (and (and (and (and (and (and (and (and (and (and (and (and (and (and (and (and (and (and (and (and (and (and (and (and (and (and (and (and (and (and (and (and (and (and (and (and (and (and (and (and (and (or (or ?v_121 P24) ?v_376) (or (or ?v_189 ?v_98) ?v_349)) (or (or ?v_5 ?v_408) ?v_163)) (or (or ?v_4 ?v_12) P18)) (or (or ?v_17 ?v_179) P36)) (or (or ?v_1 ?v_300) P16)) (or (or (not ?v_164) ?v_138) ?v_10)) (or (or ?v_30 ?v_76) ?v_360)) (or (or ?v_67 ?v_84) ?v_173)) (or (or ?v_240 ?v_311) ?v_4)) (or (or ?v_394 P31) ?v_264)) (or (or ?v_25 ?v_196) P36)) (or (or ?v_78 (not ?v_336)) ?v_223)) (or (or ?v_13 ?v_8) ?v_23)) (or (or ?v_283 ?v_267) ?v_206)) (or (or ?v_106 ?v_412) ?v_12)) (or (or ?v_13 ?v_266) ?v_14)) (or (or ?v_191 P3) ?v_29)) (or (or P2 ?v_322) P4)) (or (or ?v_93 ?v_187) P8)) (or (or ?v_62 (= ?v_171 ?v_16)) P20)) (or (or ?v_55 ?v_342) (< ?v_159 (- 5)))) (or (or ?v_287 P26) ?v_8)) (or (or ?v_97 ?v_143) ?v_324)) (or (or P26 P16) ?v_104)) (or (or ?v_23 ?v_24) ?v_25)) (or (or P32 ?v_400) (not (< x3 24)))) (or (or ?v_28 ?v_236) ?v_63)) (or (or ?v_298 ?v_23) ?v_25)) (or (or ?v_38 ?v_313) ?v_218)) (or (or ?v_126 ?v_5) P1)) (or (or ?v_47 ?v_28) ?v_29)) (or (or P18 ?v_30) (not ?v_12))) (or (or ?v_246 ?v_158) ?v_37)) (or (or ?v_95 P38) P26)) (or (or (not ?v_231) ?v_48) ?v_203)) (or (or ?v_270 ?v_253) ?v_73)) (or (or ?v_38 ?v_273) ?v_251)) (or (or ?v_92 ?v_403) ?v_69)) (or (or ?v_52 P6) P29)) (or (or ?v_110 ?v_64) ?v_259)) (or (or ?v_61 ?v_65) ?v_289)) (or (or ?v_155 ?v_59) ?v_46)) (or (or ?v_325 ?v_47) ?v_48)) (or (or ?v_12 ?v_219) P34)) (or (or ?v_226 ?v_99) ?v_247)) (or (or ?v_88 (not ?v_52)) ?v_335)) (or (or ?v_82 ?v_181) ?v_54)) (or (or ?v_55 ?v_144) ?v_333)) (or (or ?v_274 (not ?v_116)) ?v_58)) (or (or ?v_114 P38) ?v_323)) (or (or P26 ?v_411) ?v_59)) (or (or P8 ?v_172) ?v_374)) (or (or ?v_176 ?v_290) ?v_61)) (or (or ?v_68 ?v_239) ?v_75)) (or (or ?v_117 ?v_64) ?v_65)) (or (or ?v_119 ?v_67) ?v_296)) (or (or ?v_48 (not ?v_319)) ?v_146)) (or (or ?v_68 ?v_69) ?v_105)) (or (or ?v_70 ?v_197) ?v_86)) (or (or P3 ?v_115) ?v_73)) (or (or ?v_256 ?v_14) ?v_186)) (or (or ?v_96 ?v_75) ?v_76)) (or (or ?v_235 ?v_241) ?v_78)) (or (or ?v_346 ?v_80) ?v_361)) (or (or ?v_30 P8) (not ?v_48))) (or (or ?v_81 ?v_82) ?v_102)) (or (or ?v_84 ?v_299) ?v_315)) (or (or ?v_161 (not P18)) ?v_87)) (or (or ?v_88 ?v_89) P27)) (or (or ?v_90 P33) ?v_70)) (or (or (not ?v_120) ?v_136) P17)) (or (or ?v_92 ?v_107) ?v_64)) (or (or ?v_93 ?v_326) ?v_109)) (or (or ?v_407 ?v_70) ?v_95)) (or (or ?v_96 P18) ?v_97)) (or (or (not P39) ?v_98) ?v_99)) (or (or ?v_170 ?v_123) ?v_122)) (or (or ?v_257 ?v_102) ?v_103)) (or (or ?v_104 ?v_105) ?v_308)) (or (or ?v_106 ?v_10) ?v_4)) (or (or ?v_227 P32) ?v_192)) (or (or ?v_140 ?v_282) ?v_368)) (or (or ?v_69 ?v_107) ?v_108)) (or (or ?v_180 ?v_109) ?v_110)) (or (or ?v_224 ?v_370) ?v_113)) (or (or ?v_114 ?v_340) ?v_156)) (or (or ?v_115 ?v_116) ?v_117)) (or (or ?v_1 P18) ?v_118)) (or (or ?v_399 ?v_137) ?v_279)) (or (or ?v_217 ?v_120) P20)) (or (or ?v_127 ?v_242) ?v_121)) (or (or ?v_190 ?v_139) (not ?v_122))) (or (or ?v_258 P28) ?v_69)) (or (or ?v_123 P22) ?v_280)) (or (or ?v_152 ?v_195) ?v_126)) (or (or ?v_312 ?v_348) ?v_127)) (or (or ?v_128 ?v_167) P31)) (or (or ?v_129 ?v_388) ?v_151)) (or (or ?v_148 ?v_160) P5)) (or (or ?v_109 ?v_147) ?v_131)) (or (or ?v_198 ?v_157) ?v_165)) (or (or (not ?v_184) ?v_207) ?v_136)) (or (or ?v_137 ?v_138) ?v_245)) (or (or ?v_268 (not ?v_139)) (not ?v_140))) (or (or ?v_154 ?v_213) ?v_102)) (or (or ?v_149 ?v_14) ?v_68)) (or (or ?v_142 P23) ?v_205)) (or (or ?v_143 ?v_144) ?v_145)) (or (or ?v_275 ?v_25) ?v_146)) (or (or ?v_410 ?v_80) ?v_102)) (or (or ?v_113 P31) ?v_373)) (or (or ?v_309 ?v_142) ?v_147)) (or (or ?v_355 ?v_64) ?v_182)) (or (or ?v_149 ?v_150) P3)) (or (or ?v_73 P1) P29)) (or (or ?v_183 ?v_152) ?v_138)) (or (or ?v_153 ?v_154) ?v_155)) (or (or ?v_156 ?v_233) ?v_406)) (or (or P27 ?v_158) (not ?v_261))) (or (or ?v_160 ?v_418) ?v_188)) (or (or ?v_161 ?v_269) ?v_163)) (or (or P3 ?v_81) ?v_164)) (or (or ?v_165 ?v_166) ?v_167)) (or (or ?v_414 ?v_168) ?v_126)) (or (or ?v_222 ?v_383) ?v_169)) (or (or ?v_170 ?v_92) ?v_59)) (or (or ?v_331 ?v_172) ?v_61)) (or (or ?v_193 ?v_291) ?v_173)) (or (or ?v_174 ?v_215) ?v_175)) (or (or P13 ?v_364) ?v_177)) (or (or ?v_178 ?v_276) ?v_10)) (or (or P11 ?v_180) ?v_181)) (or (or P15 ?v_182) ?v_183)) (or (or P6 ?v_184) ?v_153)) (or (or ?v_185 ?v_186) ?v_176)) (or (or ?v_187 (not ?v_188)) ?v_189)) (or (or ?v_190 ?v_385) ?v_191)) (or (or ?v_192 (not (< (- (- (* (- 5) x7) (* 24 x13)) (* 6 x1)) 5))) ?v_105)) (or (or ?v_200 ?v_193) ?v_90)) (or (or ?v_228 ?v_195) ?v_196)) (or (or ?v_356 ?v_146) ?v_318)) (or (or ?v_113 ?v_375) ?v_198)) (or (or ?v_281 ?v_64) ?v_200)) (or (or ?v_201 ?v_202) P38)) (or (or ?v_216 ?v_263) ?v_153)) (or (or ?v_203 ?v_183) ?v_204)) (or (or ?v_334 ?v_17) ?v_205)) (or (or ?v_206 ?v_243) ?v_208)) (or (or ?v_209 ?v_214) ?v_168)) (or (or ?v_271 ?v_210) ?v_211)) (or (or ?v_204 ?v_212) ?v_213)) (or (or ?v_103 ?v_214) ?v_200)) (or (or ?v_140 ?v_306) ?v_208)) (or (or ?v_216 ?v_177) ?v_344)) (or (or ?v_195 ?v_218) ?v_379)) (or (or ?v_304 ?v_121) ?v_222)) (or (or P35 ?v_126) ?v_54)) (or (or ?v_223 ?v_229) ?v_362)) (or (or ?v_225 P8) ?v_65)) (or (or ?v_409 P38) ?v_214)) (or (or ?v_227 ?v_196) ?v_228)) (or (or ?v_229 ?v_224) ?v_230)) (or (or ?v_10 ?v_231) ?v_305)) (or (or ?v_232 ?v_365) ?v_54)) (or (or ?v_217 ?v_140) (not ?v_233))) (or (or ?v_123 ?v_168) ?v_234)) (or (or ?v_297 ?v_181) ?v_139)) (or (or ?v_96 ?v_236) ?v_150)) (or (or ?v_237 ?v_67) ?v_238)) (or (or P5 (not ?v_239)) ?v_240)) (or (or ?v_241 ?v_242) ?v_243)) (or (or ?v_86 ?v_244) ?v_109)) (or (or ?v_84 P32) ?v_157)) (or (or P8 ?v_245) P28)) (or (or ?v_23 ?v_246) ?v_378)) (or (or ?v_285 ?v_248) ?v_48)) (or (or ?v_249 P39) ?v_254)) (or (or ?v_173 ?v_251) ?v_98)) (or (or ?v_237 ?v_252) ?v_253)) (or (or ?v_254 ?v_193) ?v_255)) (or (or ?v_347 ?v_256) ?v_257)) (or (or P39 ?v_30) ?v_115)) (or (or ?v_258 ?v_209) ?v_259)) (or (or ?v_260 ?v_23) ?v_127)) (or (or P13 ?v_261) ?v_116)) (or (or ?v_218 ?v_185) ?v_213)) (or (or ?v_262 P19) ?v_239)) (or (or P16 ?v_263) ?v_253)) (or (or ?v_386 P17) (not ?v_351))) (or (or P3 ?v_226) ?v_266)) (or (or ?v_353 ?v_168) ?v_166)) (or (or ?v_113 ?v_223) ?v_48)) (or (or ?v_267 ?v_58) ?v_316)) (or (or ?v_206 ?v_166) ?v_81)) (or (or ?v_140 ?v_216) ?v_269)) (or (or ?v_270 ?v_271) ?v_259)) (or (or ?v_227 ?v_272) ?v_345)) (or (or ?v_97 ?v_272) P27)) (or (or ?v_187 ?v_261) ?v_109)) (or (or ?v_253 ?v_273) ?v_59)) (or (or ?v_286 ?v_119) ?v_163)) (or (or ?v_275 ?v_397) ?v_206)) (or (or ?v_193 ?v_150) ?v_257)) (or (or ?v_225 ?v_228) ?v_244)) (or (or (not ?v_123) ?v_276) ?v_268)) (or (or ?v_206 ?v_196) ?v_256)) (or (or ?v_277 P12) ?v_393)) (or (or (not ?v_193) ?v_76) ?v_277)) (or (or ?v_275 P36) ?v_359)) (or (or (not ?v_160) ?v_310) (not ?v_156))) (or (or ?v_211 ?v_129) ?v_263)) (or (or P16 ?v_279) ?v_328)) (or (or P0 ?v_372) ?v_302)) (or (or ?v_281 ?v_244) ?v_282)) (or (or ?v_254 ?v_283) ?v_164)) (or (or ?v_377 ?v_380) ?v_156)) (or (or ?v_284 ?v_258) ?v_256)) (or (or ?v_231 ?v_285) ?v_286)) (or (or ?v_287 ?v_80) ?v_237)) (or (or P2 ?v_415) ?v_92)) (or (or ?v_288 ?v_293) ?v_268)) (or (or ?v_200 P16) ?v_107)) (or (or ?v_366 ?v_55) ?v_321)) (or (or ?v_290 ?v_381) (not ?v_242))) (or (or ?v_184 ?v_292) ?v_258)) (or (or ?v_240 (not ?v_187)) ?v_82)) (or (or (not ?v_293) ?v_294) ?v_177)) (or (or P3 P23) P33)) (or (or ?v_267 ?v_295) ?v_120)) (or (or ?v_296 ?v_297) ?v_197)) (or (or ?v_205 ?v_205) ?v_298)) (or (or ?v_282 ?v_108) ?v_401)) (or (or ?v_195 ?v_299) P16)) (or (or ?v_300 ?v_142) ?v_70)) (or (or P27 ?v_24) P0)) (or (or ?v_300 ?v_341) ?v_206)) (or (or ?v_96 ?v_292) ?v_301)) (or (or P28 ?v_302) ?v_102)) (or (or ?v_299 ?v_259) ?v_226)) (or (or ?v_303 ?v_25) ?v_304)) (or (or P31 ?v_118) ?v_305)) (or (or ?v_82 ?v_216) ?v_306)) (or (or ?v_307 ?v_23) ?v_183)) (or (or ?v_308 ?v_309) ?v_277)) (or (or ?v_310 ?v_178) (not ?v_311))) (or (or ?v_173 ?v_312) ?v_147)) (or (or ?v_76 (not ?v_302)) ?v_313)) (or (or ?v_131 ?v_314) ?v_315)) (or (or ?v_316 ?v_293) ?v_175)) (or (or ?v_269 ?v_317) ?v_318)) (or (or ?v_391 ?v_319) ?v_119)) (or (or ?v_291 ?v_266) ?v_298)) (or (or ?v_67 ?v_320) ?v_321)) (or (or ?v_121 ?v_178) ?v_322)) (or (or ?v_323 ?v_30) ?v_354)) (or (or ?v_324 ?v_214) P31)) (or (or ?v_142 P19) ?v_329)) (or (or ?v_10 ?v_367) ?v_282)) (or (or ?v_326 ?v_327) P12)) (or (or ?v_328 ?v_329) ?v_10)) (or (or ?v_52 ?v_210) ?v_288)) (or (or ?v_288 (not ?v_228)) ?v_330)) (or (or P27 P18) ?v_108)) (or (or ?v_127 ?v_262) ?v_322)) (or (or ?v_47 ?v_331) P25)) (or (or ?v_329 (not ?v_200)) ?v_387)) (or (or ?v_63 P15) ?v_325)) (or (or ?v_158 ?v_269) ?v_333)) (or (or ?v_334 (not ?v_331)) ?v_326)) (or (or ?v_339 ?v_335) ?v_334)) (or (or ?v_336 ?v_312) ?v_337)) (or (or ?v_338 ?v_246) (not (< ?v_36 (- 19))))) (or (or ?v_405 ?v_115) ?v_13)) (or (or ?v_208 ?v_89) ?v_233)) (or (or ?v_340 ?v_118) ?v_329)) (or (or ?v_268 ?v_352) ?v_202)) (or (or ?v_341 ?v_255) ?v_342)) (or (or ?v_190 ?v_343) ?v_261)) (or (or ?v_153 ?v_211) ?v_344)) (or (or ?v_273 ?v_345) ?v_254)) (or (or ?v_144 ?v_341) ?v_336)) (or (or ?v_233 (not (< ?v_44 (- 1)))) ?v_269)) (or (or ?v_346 P2) ?v_99)) (or (or ?v_224 ?v_283) P9)) (or (or ?v_70 ?v_350) ?v_98)) (or (or ?v_323 ?v_348) ?v_30)) (or (or ?v_229 ?v_217) ?v_279)) (or (or ?v_349 ?v_180) ?v_151)) (or (or ?v_280 ?v_197) ?v_183)) (or (or ?v_350 ?v_271) ?v_322)) (or (or ?v_351 P17) (not ?v_352))) (or (or ?v_300 ?v_353) P13)) (or (or ?v_231 ?v_384) ?v_262)) (or (or ?v_46 ?v_355) ?v_356)) (or (or ?v_244 ?v_188) ?v_12)) (or (or ?v_357 P39) ?v_314)) (or (or P20 ?v_184) ?v_358)) (or (or ?v_204 ?v_178) ?v_369)) (or (or ?v_404 P12) (not ?v_126))) (or (or ?v_227 ?v_360) (not P25))) (or (or P32 ?v_361) ?v_114)) (or (or ?v_362 ?v_304) ?v_218)) (or (or ?v_356 ?v_226) ?v_224)) (or (or ?v_282 ?v_283) ?v_350)) (or (or ?v_363 ?v_382) ?v_337)) (or (or ?v_364 ?v_417) ?v_76)) (or (or ?v_142 ?v_212) ?v_48)) (or (or ?v_273 ?v_270) ?v_4)) (or (or ?v_365 P4) ?v_396)) (or (or ?v_366 ?v_367) P4)) (or (or ?v_368 ?v_167) ?v_272)) (or (or ?v_293 ?v_313) ?v_369)) (or (or P37 P33) ?v_202)) (or (or ?v_329 ?v_89) (not (< ?v_36 25)))) (or (or ?v_117 ?v_370) ?v_329)) (or (or ?v_196 ?v_371) ?v_372)) (or (or ?v_390 ?v_342) (not P1))) (or (or ?v_373 ?v_146) ?v_117)) (or (or ?v_99 ?v_24) (not ?v_374))) (or (or ?v_375 ?v_376) ?v_329)) (or (or ?v_226 ?v_216) ?v_61)) (or (or ?v_377 ?v_117) ?v_102)) (or (or ?v_378 ?v_225) P16)) (or (or ?v_17 ?v_285) ?v_161)) (or (or P30 ?v_374) ?v_275)) (or (or ?v_264 (not ?v_170)) ?v_379)) (or (or ?v_352 ?v_380) P35)) (or (or ?v_64 ?v_299) ?v_144)) (or (or ?v_232 ?v_108) ?v_381)) (or (or ?v_224 ?v_261) ?v_272)) (or (or ?v_180 ?v_382) ?v_353)) (or (or ?v_273 ?v_239) ?v_383)) (or (or ?v_163 ?v_167) ?v_249)) (or (or ?v_157 P28) ?v_384)) (or (or ?v_385 (not ?v_298)) ?v_282)) (or (or ?v_131 P35) ?v_386)) (or (or ?v_309 ?v_222) ?v_312)) (or (or ?v_231 ?v_172) ?v_387)) (or (or ?v_98 ?v_363) ?v_290)) (or (or ?v_322 ?v_12) (not ?v_180))) (or (or ?v_335 ?v_321) ?v_388)) (or (or P6 ?v_398) ?v_257)) (or (or ?v_420 ?v_67) ?v_109)) (or (or ?v_78 ?v_320) ?v_184)) (or (or ?v_308 ?v_10) ?v_183)) (or (or ?v_275 ?v_384) ?v_307)) (or (or ?v_153 ?v_184) ?v_148)) (or (or ?v_402 ?v_287) ?v_168)) (or (or ?v_30 ?v_28) P2)) (or (or ?v_187 ?v_303) ?v_103)) (or (or ?v_113 ?v_371) ?v_390)) (or (or ?v_391 ?v_29) ?v_215)) (or (or (not ?v_218) (not ?v_299)) ?v_392)) (or (or P26 ?v_106) ?v_352)) (or (or ?v_377 ?v_390) ?v_188)) (or (or ?v_393 ?v_391) ?v_217)) (or (or ?v_348 ?v_64) ?v_108)) (or (or ?v_236 ?v_394) ?v_268)) (or (or ?v_338 ?v_395) ?v_273)) (or (or ?v_286 ?v_302) ?v_396)) (or (or (not ?v_397) P2) ?v_293)) (or (or ?v_356 ?v_157) ?v_224)) (or (or (not ?v_398) ?v_327) ?v_399)) (or (or ?v_320 ?v_338) P19)) (or (or ?v_400 ?v_177) ?v_126)) (or (or ?v_401 ?v_241) ?v_352)) (or (or ?v_402 ?v_193) ?v_354)) (or (or ?v_222 ?v_403) ?v_119)) (or (or ?v_246 ?v_188) ?v_200)) (or (or P11 ?v_341) ?v_70)) (or (or ?v_404 ?v_216) ?v_327)) (or (or ?v_329 ?v_395) P7)) (or (or ?v_416 ?v_405) (< (- (+ (* (- 5) x12) (* 27 x17)) (* 14 x35)) 3))) (or (or ?v_261 ?v_209) ?v_187)) (or (or ?v_261 ?v_106) P10)) (or (or ?v_358 ?v_308) P11)) (or (or ?v_25 ?v_149) ?v_289)) (or (or ?v_88 ?v_406) ?v_394)) (or (or ?v_407 ?v_343) P13)) (or (or ?v_307 ?v_252) ?v_345)) (or (or ?v_68 ?v_408) ?v_172)) (or (or ?v_183 P3) ?v_379)) (or (or ?v_228 ?v_294) ?v_293)) (or (or ?v_409 ?v_147) P12)) (or (or ?v_119 ?v_73) ?v_410)) (or (or ?v_117 ?v_411) ?v_412)) (or (or ?v_413 ?v_127) (not ?v_368))) (or (or ?v_59 ?v_414) ?v_296)) (or (or ?v_415 ?v_380) ?v_327)) (or (or ?v_4 ?v_416) ?v_417)) (or (or ?v_126 ?v_418) ?v_419)) (or (or (not ?v_380) ?v_377) ?v_311)) (or (or ?v_146 ?v_25) ?v_118)) (or (or ?v_420 ?v_255) ?v_208)) (or (or ?v_157 ?v_98) ?v_62)) (or (or ?v_137 ?v_272) ?v_403)) (or (or ?v_291 ?v_421) ?v_73)) (or (or ?v_359 ?v_267) ?v_410)) (or (or ?v_62 ?v_81) P23))))))))))))))))))))))))))))))))))))))))))))))))))))))))))))))))))))))))))))))
(check-sat)
(exit)
